c description: Graph pigeonhole principle formula on fast_gnp_random_graph(20,10,0.5)
c generator: CNFgen (0.9.0)
c copyright: (C) 2012-2020 Massimo Lauria <massimo.lauria@uniroma1.it>
c url: https://massimolauria.net/cnfgen
c
p cnf 102 518
1 2 3 4 5 6 7 8 0
9 10 11 12 13 0
14 15 16 17 18 0
19 20 21 22 23 24 0
25 26 27 28 29 0
30 31 32 33 34 0
35 36 37 38 39 0
40 41 42 43 0
44 45 46 47 48 49 50 0
51 52 53 54 55 0
56 57 58 59 0
60 61 62 63 64 65 0
66 67 68 69 0
70 71 72 73 74 75 76 77 0
78 79 80 81 82 0
83 84 85 86 0
87 88 89 0
90 91 92 93 0
94 95 96 97 98 0
99 100 101 102 0
-1 -9 0
-1 -30 0
-1 -35 0
-1 -51 0
-1 -60 0
-1 -70 0
-1 -78 0
-1 -94 0
-1 -99 0
-9 -30 0
-9 -35 0
-9 -51 0
-9 -60 0
-9 -70 0
-9 -78 0
-9 -94 0
-9 -99 0
-30 -35 0
-30 -51 0
-30 -60 0
-30 -70 0
-30 -78 0
-30 -94 0
-30 -99 0
-35 -51 0
-35 -60 0
-35 -70 0
-35 -78 0
-35 -94 0
-35 -99 0
-51 -60 0
-51 -70 0
-51 -78 0
-51 -94 0
-51 -99 0
-60 -70 0
-60 -78 0
-60 -94 0
-60 -99 0
-70 -78 0
-70 -94 0
-70 -99 0
-78 -94 0
-78 -99 0
-94 -99 0
-2 -19 0
-2 -25 0
-2 -31 0
-2 -36 0
-2 -44 0
-2 -66 0
-2 -71 0
-2 -83 0
-19 -25 0
-19 -31 0
-19 -36 0
-19 -44 0
-19 -66 0
-19 -71 0
-19 -83 0
-25 -31 0
-25 -36 0
-25 -44 0
-25 -66 0
-25 -71 0
-25 -83 0
-31 -36 0
-31 -44 0
-31 -66 0
-31 -71 0
-31 -83 0
-36 -44 0
-36 -66 0
-36 -71 0
-36 -83 0
-44 -66 0
-44 -71 0
-44 -83 0
-66 -71 0
-66 -83 0
-71 -83 0
-3 -14 0
-3 -20 0
-3 -40 0
-3 -56 0
-3 -72 0
-3 -87 0
-3 -90 0
-14 -20 0
-14 -40 0
-14 -56 0
-14 -72 0
-14 -87 0
-14 -90 0
-20 -40 0
-20 -56 0
-20 -72 0
-20 -87 0
-20 -90 0
-40 -56 0
-40 -72 0
-40 -87 0
-40 -90 0
-56 -72 0
-56 -87 0
-56 -90 0
-72 -87 0
-72 -90 0
-87 -90 0
-4 -15 0
-4 -21 0
-4 -37 0
-4 -41 0
-4 -45 0
-4 -73 0
-4 -79 0
-4 -95 0
-15 -21 0
-15 -37 0
-15 -41 0
-15 -45 0
-15 -73 0
-15 -79 0
-15 -95 0
-21 -37 0
-21 -41 0
-21 -45 0
-21 -73 0
-21 -79 0
-21 -95 0
-37 -41 0
-37 -45 0
-37 -73 0
-37 -79 0
-37 -95 0
-41 -45 0
-41 -73 0
-41 -79 0
-41 -95 0
-45 -73 0
-45 -79 0
-45 -95 0
-73 -79 0
-73 -95 0
-79 -95 0
-16 -22 0
-16 -26 0
-16 -42 0
-16 -46 0
-16 -57 0
-16 -61 0
-16 -67 0
-16 -74 0
-16 -88 0
-16 -91 0
-16 -96 0
-16 -100 0
-22 -26 0
-22 -42 0
-22 -46 0
-22 -57 0
-22 -61 0
-22 -67 0
-22 -74 0
-22 -88 0
-22 -91 0
-22 -96 0
-22 -100 0
-26 -42 0
-26 -46 0
-26 -57 0
-26 -61 0
-26 -67 0
-26 -74 0
-26 -88 0
-26 -91 0
-26 -96 0
-26 -100 0
-42 -46 0
-42 -57 0
-42 -61 0
-42 -67 0
-42 -74 0
-42 -88 0
-42 -91 0
-42 -96 0
-42 -100 0
-46 -57 0
-46 -61 0
-46 -67 0
-46 -74 0
-46 -88 0
-46 -91 0
-46 -96 0
-46 -100 0
-57 -61 0
-57 -67 0
-57 -74 0
-57 -88 0
-57 -91 0
-57 -96 0
-57 -100 0
-61 -67 0
-61 -74 0
-61 -88 0
-61 -91 0
-61 -96 0
-61 -100 0
-67 -74 0
-67 -88 0
-67 -91 0
-67 -96 0
-67 -100 0
-74 -88 0
-74 -91 0
-74 -96 0
-74 -100 0
-88 -91 0
-88 -96 0
-88 -100 0
-91 -96 0
-91 -100 0
-96 -100 0
-5 -10 0
-5 -27 0
-5 -32 0
-5 -38 0
-5 -47 0
-5 -62 0
-5 -68 0
-5 -75 0
-5 -84 0
-5 -89 0
-5 -92 0
-5 -97 0
-10 -27 0
-10 -32 0
-10 -38 0
-10 -47 0
-10 -62 0
-10 -68 0
-10 -75 0
-10 -84 0
-10 -89 0
-10 -92 0
-10 -97 0
-27 -32 0
-27 -38 0
-27 -47 0
-27 -62 0
-27 -68 0
-27 -75 0
-27 -84 0
-27 -89 0
-27 -92 0
-27 -97 0
-32 -38 0
-32 -47 0
-32 -62 0
-32 -68 0
-32 -75 0
-32 -84 0
-32 -89 0
-32 -92 0
-32 -97 0
-38 -47 0
-38 -62 0
-38 -68 0
-38 -75 0
-38 -84 0
-38 -89 0
-38 -92 0
-38 -97 0
-47 -62 0
-47 -68 0
-47 -75 0
-47 -84 0
-47 -89 0
-47 -92 0
-47 -97 0
-62 -68 0
-62 -75 0
-62 -84 0
-62 -89 0
-62 -92 0
-62 -97 0
-68 -75 0
-68 -84 0
-68 -89 0
-68 -92 0
-68 -97 0
-75 -84 0
-75 -89 0
-75 -92 0
-75 -97 0
-84 -89 0
-84 -92 0
-84 -97 0
-89 -92 0
-89 -97 0
-92 -97 0
-6 -11 0
-6 -23 0
-6 -39 0
-6 -43 0
-6 -48 0
-6 -52 0
-6 -58 0
-6 -63 0
-6 -69 0
-6 -76 0
-6 -80 0
-6 -85 0
-6 -93 0
-6 -101 0
-11 -23 0
-11 -39 0
-11 -43 0
-11 -48 0
-11 -52 0
-11 -58 0
-11 -63 0
-11 -69 0
-11 -76 0
-11 -80 0
-11 -85 0
-11 -93 0
-11 -101 0
-23 -39 0
-23 -43 0
-23 -48 0
-23 -52 0
-23 -58 0
-23 -63 0
-23 -69 0
-23 -76 0
-23 -80 0
-23 -85 0
-23 -93 0
-23 -101 0
-39 -43 0
-39 -48 0
-39 -52 0
-39 -58 0
-39 -63 0
-39 -69 0
-39 -76 0
-39 -80 0
-39 -85 0
-39 -93 0
-39 -101 0
-43 -48 0
-43 -52 0
-43 -58 0
-43 -63 0
-43 -69 0
-43 -76 0
-43 -80 0
-43 -85 0
-43 -93 0
-43 -101 0
-48 -52 0
-48 -58 0
-48 -63 0
-48 -69 0
-48 -76 0
-48 -80 0
-48 -85 0
-48 -93 0
-48 -101 0
-52 -58 0
-52 -63 0
-52 -69 0
-52 -76 0
-52 -80 0
-52 -85 0
-52 -93 0
-52 -101 0
-58 -63 0
-58 -69 0
-58 -76 0
-58 -80 0
-58 -85 0
-58 -93 0
-58 -101 0
-63 -69 0
-63 -76 0
-63 -80 0
-63 -85 0
-63 -93 0
-63 -101 0
-69 -76 0
-69 -80 0
-69 -85 0
-69 -93 0
-69 -101 0
-76 -80 0
-76 -85 0
-76 -93 0
-76 -101 0
-80 -85 0
-80 -93 0
-80 -101 0
-85 -93 0
-85 -101 0
-93 -101 0
-7 -12 0
-7 -24 0
-7 -28 0
-7 -33 0
-7 -49 0
-7 -53 0
-7 -86 0
-12 -24 0
-12 -28 0
-12 -33 0
-12 -49 0
-12 -53 0
-12 -86 0
-24 -28 0
-24 -33 0
-24 -49 0
-24 -53 0
-24 -86 0
-28 -33 0
-28 -49 0
-28 -53 0
-28 -86 0
-33 -49 0
-33 -53 0
-33 -86 0
-49 -53 0
-49 -86 0
-53 -86 0
-13 -17 0
-13 -29 0
-13 -34 0
-13 -50 0
-13 -54 0
-13 -64 0
-13 -81 0
-13 -98 0
-17 -29 0
-17 -34 0
-17 -50 0
-17 -54 0
-17 -64 0
-17 -81 0
-17 -98 0
-29 -34 0
-29 -50 0
-29 -54 0
-29 -64 0
-29 -81 0
-29 -98 0
-34 -50 0
-34 -54 0
-34 -64 0
-34 -81 0
-34 -98 0
-50 -54 0
-50 -64 0
-50 -81 0
-50 -98 0
-54 -64 0
-54 -81 0
-54 -98 0
-64 -81 0
-64 -98 0
-81 -98 0
-8 -18 0
-8 -55 0
-8 -59 0
-8 -65 0
-8 -77 0
-8 -82 0
-8 -102 0
-18 -55 0
-18 -59 0
-18 -65 0
-18 -77 0
-18 -82 0
-18 -102 0
-55 -59 0
-55 -65 0
-55 -77 0
-55 -82 0
-55 -102 0
-59 -65 0
-59 -77 0
-59 -82 0
-59 -102 0
-65 -77 0
-65 -82 0
-65 -102 0
-77 -82 0
-77 -102 0
-82 -102 0